&CONTROL
 title='TITLE'
 calculation='CALCULATION'
 restart_mode='MODE'
 outdir='OUTDIR'
 pseudo_dir='PSEUDODIR'
 tstress=TSTRESS
 tprnfor=TPRNFOR
 verbosity='VERBOSE'
 nstep=NSTEP
 dt=TIMESTEP
 ndr=NDR
 ndw=NDW
 iprint=IPRINT
 isave=ISAVE
 prefix=PREFIX
 ekin_conv_thr=EKINCONVTHR
 etot_conv_thr=ETOTCONVTHR
 forc_conv_thr=FORCCONVTHR
/

&SYSTEM
 ibrav=IBRAV
 nat=NAT
 nbnd=NBND
 ntyp=NTYP
 nspin=1
 ecutwfc=ECUTWFC
 ecutrho=200.0
 celldm(1)=6.83128
 nr1b=32
 nr2b=32
 nr3b=32

/

&ELECTRONS
 electron_dynamics='ELECTRONDYNAMICS'
 electron_damping=ELECTRONDAMPING
 electron_velocities='ELECTRONVELOCITY'
 startingwfc='STARTINGWFC'
 ampre=AMPRE
 emass=EMASS
 emass_cutoff=EMCUTOFF
 ortho_max=ORTHOMAX
 orthogonalization='ORTHOGONALIZATION'
/

&IONS
 ion_dynamics='IONDYNAMICS'
 ion_velocities='IONVELOCITY'
 ion_damping=IONDAMPING
 ion_radius(1)=1.0
 tempw=TEMPW
 fnosep=FNOSEP
/

ATOMIC_SPECIES
 Cu   63.54600   Cu.pz-dn-rrkjus_psl.0.2.UPF

ATOMIC_POSITIONS {crystal}
Cu   0.000000000000000   0.000000000000000   0.000000000000000 
Cu   0.500000000000000   0.500000000000000   0.000000000000000 
Cu   0.500000000000000   0.000000000000000   0.000000000000000 
Cu   0.000000000000000   0.500000000000000   0.500000000000000 
Cu   0.000000000000000   0.000000000000000   0.500000000000000 
Cu   0.500000000000000   0.500000000000000   0.500000000000000 
Cu   0.500000000000000   0.000000000000000   0.500000000000000 
Cu   0.000000000000000   0.500000000000000   0.000000000000000

CELL_PARAMETERS {alat}
  1.000000000000000   1.000000000000000   0.000000000000000 
  1.000000000000000   0.000000000000000   1.000000000000000 
  0.000000000000000   1.000000000000000   1.000000000000000 
