&CONTROL
 title='TITLE'
 calculation='CALCULATION'
 restart_mode='MODE'
 outdir='OUTDIR'
 pseudo_dir='PSEUDODIR'
 tstress=TSTRESS
 tprnfor=TPRNFOR
 verbosity='VERBOSE'
 nstep=NSTEP
 dt=TIMESTEP
 ndr=NDR
 ndw=NDW
 iprint=IPRINT
 isave=ISAVE
 prefix=PREFIX
 ekin_conv_thr=EKINCONVTHR
 etot_conv_thr=ETOTCONVTHR
 forc_conv_thr=FORCCONVTHR
/

&SYSTEM
 ibrav=IBRAV
 nat=NAT
 ntyp=NTYP
 nbnd=1
 nspin=1
 ecutwfc=ECUTWFC
 ecutrho=120.0
/

&ELECTRONS
 electron_dynamics='ELECTRONDYNAMICS'
 electron_damping=ELECTRONDAMPING
 electron_velocities='ELECTRONVELOCITY'
 startingwfc='STARTINGWFC'
 ampre=AMPRE
 emass=EMASS
 emass_cutoff=EMCUTOFF
 ortho_max=ORTHOMAX
 orthogonalization='ORTHOGONALIZATION'
/

&IONS
 ion_dynamics='IONDYNAMICS'
 ion_velocities='IONVELOCITY'
 ion_damping=IONDAMPING
 ion_radius(1)=1.0
 tempw=TEMPW
 fnosep=FNOSEP
/

ATOMIC_SPECIES
 Cu   1.00   Cu.pz-vbc.UPF

ATOMIC_POSITIONS {angstrom}
Cu 	0.00000 	 0.00000 	 0.00000
Cu 	1.80500 	 1.80500 	 0.00000
Cu 	-1.80500 	 1.80500 	 0.00000
Cu 	1.80500 	 -1.80500 	 0.00000
Cu 	-1.80500 	 -1.80500 	 0.00000
Cu 	1.80500 	 0.00000 	 1.80500
Cu 	-1.80500 	 0.00000 	 1.80500
Cu 	0.00000 	 1.80500 	 1.80500
Cu 	0.00000 	 -1.80500 	 1.80500
Cu 	1.80500 	 0.00000 	 -1.80500
Cu 	-1.80500 	 0.00000 	 -1.80500
Cu 	0.00000 	 1.80500 	 -1.80500
Cu 	0.00000 	 -1.80500 	 -1.80500
Cu 	3.61000 	 0.00000 	 0.00000
Cu 	-3.61000 	 0.00000 	 0.00000
Cu 	0.00000 	 3.61000 	 0.00000
Cu 	0.00000 	 -3.61000 	 0.00000
Cu 	0.00000 	 0.00000 	 3.61000
Cu 	0.00000 	 0.00000 	 -3.61000
Cu 	3.61000 	 1.80500 	 1.80500
Cu 	-3.61000 	 1.80500 	 1.80500
Cu 	1.80500 	 3.61000 	 1.80500
Cu 	-1.80500 	 3.61000 	 1.80500
Cu 	3.61000 	 -1.80500 	 1.80500
Cu 	-3.61000 	 -1.80500 	 1.80500
Cu 	1.80500 	 -3.61000 	 1.80500
Cu 	-1.80500 	 -3.61000 	 1.80500
Cu 	1.80500 	 1.80500 	 3.61000
Cu 	-1.80500 	 1.80500 	 3.61000
Cu 	1.80500 	 -1.80500 	 3.61000
Cu 	-1.80500 	 -1.80500 	 3.61000
Cu 	3.61000 	 1.80500 	 -1.80500
Cu 	-3.61000 	 1.80500 	 -1.80500
Cu 	1.80500 	 3.61000 	 -1.80500
Cu 	-1.80500 	 3.61000 	 -1.80500
Cu 	3.61000 	 -1.80500 	 -1.80500
Cu 	-3.61000 	 -1.80500 	 -1.80500
Cu 	1.80500 	 -3.61000 	 -1.80500
Cu 	-1.80500 	 -3.61000 	 -1.80500
Cu 	1.80500 	 1.80500 	 -3.61000
Cu 	-1.80500 	 1.80500 	 -3.61000
Cu 	1.80500 	 -1.80500 	 -3.61000
Cu 	-1.80500 	 -1.80500 	 -3.61000
Cu 	3.61000 	 3.61000 	 0.00000
Cu 	-3.61000 	 3.61000 	 0.00000
Cu 	3.61000 	 -3.61000 	 0.00000
Cu 	-3.61000 	 -3.61000 	 0.00000
Cu 	3.61000 	 0.00000 	 3.61000
Cu 	-3.61000 	 0.00000 	 3.61000
Cu 	0.00000 	 3.61000 	 3.61000
Cu 	0.00000 	 -3.61000 	 3.61000
Cu 	3.61000 	 0.00000 	 -3.61000
Cu 	-3.61000 	 0.00000 	 -3.61000
Cu 	0.00000 	 3.61000 	 -3.61000
Cu 	0.00000 	 -3.61000 	 -3.61000
Cu 	5.41500 	 1.80500 	 0.00000
Cu 	-5.41500 	 1.80500 	 0.00000
Cu 	1.80500 	 5.41500 	 0.00000
Cu 	-1.80500 	 5.41500 	 0.00000
Cu 	5.41500 	 -1.80500 	 0.00000
Cu 	-5.41500 	 -1.80500 	 0.00000
Cu 	1.80500 	 -5.41500 	 0.00000
Cu 	-1.80500 	 -5.41500 	 0.00000
Cu 	5.41500 	 0.00000 	 1.80500
Cu 	-5.41500 	 0.00000 	 1.80500
Cu 	0.00000 	 5.41500 	 1.80500
Cu 	0.00000 	 -5.41500 	 1.80500
Cu 	1.80500 	 0.00000 	 5.41500
Cu 	-1.80500 	 0.00000 	 5.41500
Cu 	0.00000 	 1.80500 	 5.41500
Cu 	0.00000 	 -1.80500 	 5.41500
Cu 	5.41500 	 0.00000 	 -1.80500
Cu 	-5.41500 	 0.00000 	 -1.80500
Cu 	0.00000 	 5.41500 	 -1.80500
Cu 	0.00000 	 -5.41500 	 -1.80500
Cu 	1.80500 	 0.00000 	 -5.41500
Cu 	-1.80500 	 0.00000 	 -5.41500
Cu 	0.00000 	 1.80500 	 -5.41500
Cu 	0.00000 	 -1.80500 	 -5.41500
Cu 	3.61000 	 3.61000 	 3.61000
Cu 	-3.61000 	 3.61000 	 3.61000
Cu 	3.61000 	 -3.61000 	 3.61000
Cu 	-3.61000 	 -3.61000 	 3.61000
Cu 	3.61000 	 3.61000 	 -3.61000
Cu 	-3.61000 	 3.61000 	 -3.61000
Cu 	3.61000 	 -3.61000 	 -3.61000
Cu 	-3.61000 	 -3.61000 	 -3.61000
Cu 	5.41500 	 3.61000 	 1.80500
Cu 	-5.41500 	 3.61000 	 1.80500
Cu 	3.61000 	 5.41500 	 1.80500
Cu 	-3.61000 	 5.41500 	 1.80500
Cu 	5.41500 	 -3.61000 	 1.80500
Cu 	-5.41500 	 -3.61000 	 1.80500
Cu 	3.61000 	 -5.41500 	 1.80500
Cu 	-3.61000 	 -5.41500 	 1.80500
Cu 	5.41500 	 1.80500 	 3.61000
Cu 	-5.41500 	 1.80500 	 3.61000
Cu 	1.80500 	 5.41500 	 3.61000
Cu 	-1.80500 	 5.41500 	 3.61000
Cu 	5.41500 	 -1.80500 	 3.61000
Cu 	-5.41500 	 -1.80500 	 3.61000
Cu 	1.80500 	 -5.41500 	 3.61000
Cu 	-1.80500 	 -5.41500 	 3.61000
Cu 	3.61000 	 1.80500 	 5.41500
Cu 	-3.61000 	 1.80500 	 5.41500
Cu 	1.80500 	 3.61000 	 5.41500
Cu 	-1.80500 	 3.61000 	 5.41500
Cu 	3.61000 	 -1.80500 	 5.41500
Cu 	-3.61000 	 -1.80500 	 5.41500
Cu 	1.80500 	 -3.61000 	 5.41500
Cu 	-1.80500 	 -3.61000 	 5.41500
Cu 	5.41500 	 3.61000 	 -1.80500
Cu 	-5.41500 	 3.61000 	 -1.80500
Cu 	3.61000 	 5.41500 	 -1.80500
Cu 	-3.61000 	 5.41500 	 -1.80500
Cu 	5.41500 	 -3.61000 	 -1.80500
Cu 	-5.41500 	 -3.61000 	 -1.80500
Cu 	3.61000 	 -5.41500 	 -1.80500
Cu 	-3.61000 	 -5.41500 	 -1.80500
Cu 	5.41500 	 1.80500 	 -3.61000
Cu 	-5.41500 	 1.80500 	 -3.61000
Cu 	1.80500 	 5.41500 	 -3.61000
Cu 	-1.80500 	 5.41500 	 -3.61000
Cu 	5.41500 	 -1.80500 	 -3.61000
Cu 	-5.41500 	 -1.80500 	 -3.61000
Cu 	1.80500 	 -5.41500 	 -3.61000
Cu 	-1.80500 	 -5.41500 	 -3.61000
Cu 	3.61000 	 1.80500 	 -5.41500
Cu 	-3.61000 	 1.80500 	 -5.41500
Cu 	1.80500 	 3.61000 	 -5.41500
Cu 	-1.80500 	 3.61000 	 -5.41500
Cu 	3.61000 	 -1.80500 	 -5.41500
Cu 	-3.61000 	 -1.80500 	 -5.41500
Cu 	1.80500 	 -3.61000 	 -5.41500
Cu 	-1.80500 	 -3.61000 	 -5.41500
Cu 	7.22000 	 0.00000 	 0.00000
Cu 	-7.22000 	 0.00000 	 0.00000
Cu 	0.00000 	 7.22000 	 0.00000
Cu 	0.00000 	 -7.22000 	 0.00000
Cu 	0.00000 	 0.00000 	 7.22000
Cu 	0.00000 	 0.00000 	 -7.22000
Cu 	5.41500 	 5.41500 	 0.00000
Cu 	-5.41500 	 5.41500 	 0.00000
Cu 	5.41500 	 -5.41500 	 0.00000
Cu 	-5.41500 	 -5.41500 	 0.00000
Cu 	7.22000 	 1.80500 	 1.80500
Cu 	-7.22000 	 1.80500 	 1.80500
Cu 	1.80500 	 7.22000 	 1.80500
Cu 	-1.80500 	 7.22000 	 1.80500
Cu 	7.22000 	 -1.80500 	 1.80500
Cu 	-7.22000 	 -1.80500 	 1.80500
Cu 	1.80500 	 -7.22000 	 1.80500
Cu 	-1.80500 	 -7.22000 	 1.80500
Cu 	5.41500 	 0.00000 	 5.41500
Cu 	-5.41500 	 0.00000 	 5.41500
Cu 	0.00000 	 5.41500 	 5.41500
Cu 	0.00000 	 -5.41500 	 5.41500
Cu 	1.80500 	 1.80500 	 7.22000
Cu 	-1.80500 	 1.80500 	 7.22000
Cu 	1.80500 	 -1.80500 	 7.22000
Cu 	-1.80500 	 -1.80500 	 7.22000
Cu 	7.22000 	 1.80500 	 -1.80500
Cu 	-7.22000 	 1.80500 	 -1.80500
Cu 	1.80500 	 7.22000 	 -1.80500
Cu 	-1.80500 	 7.22000 	 -1.80500
Cu 	7.22000 	 -1.80500 	 -1.80500
Cu 	-7.22000 	 -1.80500 	 -1.80500
Cu 	1.80500 	 -7.22000 	 -1.80500
Cu 	-1.80500 	 -7.22000 	 -1.80500
Cu 	5.41500 	 0.00000 	 -5.41500
Cu 	-5.41500 	 0.00000 	 -5.41500
Cu 	0.00000 	 5.41500 	 -5.41500
Cu 	0.00000 	 -5.41500 	 -5.41500
Cu 	1.80500 	 1.80500 	 -7.22000
Cu 	-1.80500 	 1.80500 	 -7.22000
Cu 	1.80500 	 -1.80500 	 -7.22000
Cu 	-1.80500 	 -1.80500 	 -7.22000
