&CONTROL
 title='TITLE'
 calculation='CALCULATION'
 restart_mode='MODE'
 outdir='OUTDIR'
 pseudo_dir='PSEUDODIR'
 tstress=TSTRESS
 tprnfor=TPRNFOR
 verbosity='VERBOSE'
 nstep=NSTEP
 dt=TIMESTEP
 ndr=NDR
 ndw=NDW
 iprint=IPRINT
 isave=ISAVE
 prefix=PREFIX
 ekin_conv_thr=EKINCONVTHR
 etot_conv_thr=ETOTCONVTHR
 forc_conv_thr=FORCCONVTHR
/

&SYSTEM
 ibrav=IBRAV
 nat=NAT
 ntyp=NTYP
 nbnd=1
 nspin=1
 ecutwfc=ECUTWFC
 ecutrho=120.0
/

&ELECTRONS
 electron_dynamics='ELECTRONDYNAMICS'
 electron_damping=ELECTRONDAMPING
 electron_velocities='ELECTRONVELOCITY'
 startingwfc='STARTINGWFC'
 ampre=AMPRE
 emass=EMASS
 emass_cutoff=EMCUTOFF
 ortho_max=ORTHOMAX
 orthogonalization='ORTHOGONALIZATION'
/

&IONS
 ion_dynamics='IONDYNAMICS'
 ion_velocities='IONVELOCITY'
 ion_damping=IONDAMPING
 ion_radius(1)=1.0
 tempw=TEMPW
 fnosep=FNOSEP
/

ATOMIC_SPECIES
 H   1.00   H.pz-vbc.UPF

ATOMIC_POSITIONS {angstrom}
H -0.4 0.0 0.0
H  0.4 0.0 0.0

CELL_PARAMETERS {angstrom}
  20.0  0.0  0.0
   0.0 20.0  0.0
   0.0  0.0 20.0
